RAW/XT/fspd/X-n167-k10.vrp_seed-1.out
19375	31.774	32.809
