RAW/XT/fspd/X-n167-k10.vrp_seed-1.sol
Route #1: 5 86 103 152 124 63 99
Route #2: 67 89 7 25 93 118 47 126 127 61 58 56 155 69 83 22 73 137
Route #3: 76 23 139 154 132 142 19 50 40 31 24 133 70 141 11 39 120 82 158 60 113 71 143 130
Route #4: 3 21 149 4 75 95 59 112 53 32 28 153 116 151 38 92 30 44
Route #5: 6 157 9 48 68 162 62 123 128 14 96 17 15 119 140 46 79 121
Route #6: 55 131 109 16 29 2 136 114 163 145 129 8 148 97 115 85 52 134
Route #7: 87 144 80 105 36 110 65 34 164 81 45 98 150 135 100 102 108 27 101 18 54 42
Route #8: 159 156 125 66 43 117 147 91 161 90 94 166 106 33 74 41 78 165 26 35
Route #9: 138 20 49 64 107 104 12 57 77 13 1 122 111 88 37 84 146 51 10 72 160
Cost 19375.000000